\ENCODING=ISO-8859-1
\Problem name: ilog.cplex

Maximize
 obj: 10 x_ijk_0_0_0 + 18 x_ijk_0_1_0 + 14 x_ijk_0_2_0 + 7 x_ijk_0_3_0
      + 15 x_ijk_0_4_0 + 5 x_ijk_1_0_0 + 6 x_ijk_1_1_0 + 2 x_ijk_1_2_0
      + 11 x_ijk_2_0_0 + 11 x_ijk_2_1_0 + 10 x_ijk_3_0_0 + 18 x_ijk_3_1_0
      + 3 x_ijk_3_2_0 + 9 x_ijk_3_3_0 + 4 x_ijk_3_4_0 + 6 x_ijk_4_0_0
      + 17 x_ijk_4_1_0 + 9 x_ijk_5_0_0 + 13 x_ijk_5_1_0 + 6 x_ijk_5_2_0
      + 9 x_ijk_5_3_0 + 6 x_ijk_6_0_0 + 5 x_ijk_6_1_0 + 14 x_ijk_6_2_0
      + 18 x_ijk_6_3_0 + 5 x_ijk_7_0_0 + 8 x_ijk_7_1_0 + 9 x_ijk_7_2_0
      + 10 x_ijk_0_0_1 + 18 x_ijk_0_1_1 + 14 x_ijk_0_2_1 + 7 x_ijk_0_3_1
      + 15 x_ijk_0_4_1 + 5 x_ijk_1_0_1 + 6 x_ijk_1_1_1 + 2 x_ijk_1_2_1
      + 11 x_ijk_2_0_1 + 11 x_ijk_2_1_1 + 10 x_ijk_3_0_1 + 18 x_ijk_3_1_1
      + 3 x_ijk_3_2_1 + 9 x_ijk_3_3_1 + 4 x_ijk_3_4_1 + 6 x_ijk_4_0_1
      + 17 x_ijk_4_1_1 + 9 x_ijk_5_0_1 + 13 x_ijk_5_1_1 + 6 x_ijk_5_2_1
      + 9 x_ijk_5_3_1 + 6 x_ijk_6_0_1 + 5 x_ijk_6_1_1 + 14 x_ijk_6_2_1
      + 18 x_ijk_6_3_1 + 5 x_ijk_7_0_1 + 8 x_ijk_7_1_1 + 9 x_ijk_7_2_1
      + 10 x_ijk_0_0_2 + 18 x_ijk_0_1_2 + 14 x_ijk_0_2_2 + 7 x_ijk_0_3_2
      + 15 x_ijk_0_4_2 + 5 x_ijk_1_0_2 + 6 x_ijk_1_1_2 + 2 x_ijk_1_2_2
      + 11 x_ijk_2_0_2 + 11 x_ijk_2_1_2 + 10 x_ijk_3_0_2 + 18 x_ijk_3_1_2
      + 3 x_ijk_3_2_2 + 9 x_ijk_3_3_2 + 4 x_ijk_3_4_2 + 6 x_ijk_4_0_2
      + 17 x_ijk_4_1_2 + 9 x_ijk_5_0_2 + 13 x_ijk_5_1_2 + 6 x_ijk_5_2_2
      + 9 x_ijk_5_3_2 + 6 x_ijk_6_0_2 + 5 x_ijk_6_1_2 + 14 x_ijk_6_2_2
      + 18 x_ijk_6_3_2 + 5 x_ijk_7_0_2 + 8 x_ijk_7_1_2 + 9 x_ijk_7_2_2
      + 10 x_ijk_0_0_3 + 18 x_ijk_0_1_3 + 14 x_ijk_0_2_3 + 7 x_ijk_0_3_3
      + 15 x_ijk_0_4_3 + 5 x_ijk_1_0_3 + 6 x_ijk_1_1_3 + 2 x_ijk_1_2_3
      + 11 x_ijk_2_0_3 + 11 x_ijk_2_1_3 + 10 x_ijk_3_0_3 + 18 x_ijk_3_1_3
      + 3 x_ijk_3_2_3 + 9 x_ijk_3_3_3 + 4 x_ijk_3_4_3 + 6 x_ijk_4_0_3
      + 17 x_ijk_4_1_3 + 9 x_ijk_5_0_3 + 13 x_ijk_5_1_3 + 6 x_ijk_5_2_3
      + 9 x_ijk_5_3_3 + 6 x_ijk_6_0_3 + 5 x_ijk_6_1_3 + 14 x_ijk_6_2_3
      + 18 x_ijk_6_3_3 + 5 x_ijk_7_0_3 + 8 x_ijk_7_1_3 + 9 x_ijk_7_2_3
      + 10 x_ijk_0_0_4 + 18 x_ijk_0_1_4 + 14 x_ijk_0_2_4 + 7 x_ijk_0_3_4
      + 15 x_ijk_0_4_4 + 5 x_ijk_1_0_4 + 6 x_ijk_1_1_4 + 2 x_ijk_1_2_4
      + 11 x_ijk_2_0_4 + 11 x_ijk_2_1_4 + 10 x_ijk_3_0_4 + 18 x_ijk_3_1_4
      + 3 x_ijk_3_2_4 + 9 x_ijk_3_3_4 + 4 x_ijk_3_4_4 + 6 x_ijk_4_0_4
      + 17 x_ijk_4_1_4 + 9 x_ijk_5_0_4 + 13 x_ijk_5_1_4 + 6 x_ijk_5_2_4
      + 9 x_ijk_5_3_4 + 6 x_ijk_6_0_4 + 5 x_ijk_6_1_4 + 14 x_ijk_6_2_4
      + 18 x_ijk_6_3_4 + 5 x_ijk_7_0_4 + 8 x_ijk_7_1_4 + 9 x_ijk_7_2_4
Subject To
 c1:  33 x_ijk_0_0_0 + 7 x_ijk_0_1_0 + 17 x_ijk_0_2_0 + 9 x_ijk_0_3_0
      + 9 x_ijk_0_4_0 + 35 x_ijk_1_0_0 + 36 x_ijk_1_1_0 + 27 x_ijk_1_2_0
      + 39 x_ijk_2_0_0 + 21 x_ijk_2_1_0 + 6 x_ijk_3_0_0 + 17 x_ijk_3_1_0
      + 21 x_ijk_3_2_0 + 19 x_ijk_3_3_0 + 26 x_ijk_3_4_0 + 30 x_ijk_4_0_0
      + 29 x_ijk_4_1_0 + 35 x_ijk_5_0_0 + 5 x_ijk_5_1_0 + x_ijk_5_2_0
      + 15 x_ijk_5_3_0 + 30 x_ijk_6_0_0 + x_ijk_6_1_0 + 35 x_ijk_6_2_0
      + 37 x_ijk_6_3_0 + 24 x_ijk_7_0_0 + 33 x_ijk_7_1_0 + 10 x_ijk_7_2_0 <= 59
 c2:  x_ijk_0_0_1 + 2 x_ijk_0_1_1 + 3 x_ijk_0_2_1 + 2 x_ijk_0_3_1
      + 3 x_ijk_0_4_1 + 4 x_ijk_1_0_1 + 2 x_ijk_1_1_1 + x_ijk_1_2_1
      + 3 x_ijk_2_0_1 + x_ijk_2_1_1 + 3 x_ijk_3_0_1 + 3 x_ijk_3_1_1
      + x_ijk_3_2_1 + 3 x_ijk_3_3_1 + x_ijk_3_4_1 + 4 x_ijk_4_0_1
      + 2 x_ijk_4_1_1 + 3 x_ijk_5_0_1 + 3 x_ijk_5_1_1 + 2 x_ijk_5_2_1
      + 2 x_ijk_5_3_1 + 4 x_ijk_6_0_1 + x_ijk_6_1_1 + x_ijk_6_2_1
      + 4 x_ijk_6_3_1 + 2 x_ijk_7_0_1 + x_ijk_7_1_1 + 4 x_ijk_7_2_1 <= 4
 c3:  13 x_ijk_0_0_2 + 12 x_ijk_0_1_2 + 16 x_ijk_0_2_2 + 2 x_ijk_0_3_2
      + x_ijk_0_4_2 + 23 x_ijk_1_0_2 + 18 x_ijk_1_1_2 + 12 x_ijk_1_2_2
      + 9 x_ijk_2_0_2 + 10 x_ijk_2_1_2 + 10 x_ijk_3_0_2 + 17 x_ijk_3_1_2
      + 7 x_ijk_3_2_2 + 10 x_ijk_3_3_2 + 23 x_ijk_3_4_2 + 19 x_ijk_4_0_2
      + 26 x_ijk_4_1_2 + 15 x_ijk_5_0_2 + 11 x_ijk_5_1_2 + 25 x_ijk_5_2_2
      + 2 x_ijk_5_3_2 + 10 x_ijk_6_0_2 + 26 x_ijk_6_1_2 + 5 x_ijk_6_2_2
      + 16 x_ijk_6_3_2 + 4 x_ijk_7_0_2 + 9 x_ijk_7_1_2 + 11 x_ijk_7_2_2 <= 28
 c4:  7 x_ijk_0_0_3 + 10 x_ijk_0_1_3 + 5 x_ijk_0_2_3 + 18 x_ijk_0_3_3
      + 8 x_ijk_0_4_3 + 16 x_ijk_1_0_3 + 33 x_ijk_1_1_3 + 40 x_ijk_1_2_3
      + 30 x_ijk_2_0_3 + 32 x_ijk_2_1_3 + 33 x_ijk_3_0_3 + 16 x_ijk_3_1_3
      + 35 x_ijk_3_2_3 + 37 x_ijk_3_3_3 + 2 x_ijk_3_4_3 + 34 x_ijk_4_0_3
      + 35 x_ijk_4_1_3 + 3 x_ijk_5_0_3 + 13 x_ijk_5_1_3 + 28 x_ijk_5_2_3
      + 21 x_ijk_5_3_3 + 30 x_ijk_6_0_3 + 8 x_ijk_6_1_3 + 12 x_ijk_6_2_3
      + 31 x_ijk_6_3_3 + 3 x_ijk_7_0_3 + 5 x_ijk_7_1_3 + 39 x_ijk_7_2_3 <= 82
 c5:  31 x_ijk_0_0_4 + 19 x_ijk_0_1_4 + 34 x_ijk_0_2_4 + 35 x_ijk_0_3_4
      + x_ijk_0_4_4 + 30 x_ijk_1_0_4 + 39 x_ijk_1_1_4 + 31 x_ijk_1_2_4
      + 7 x_ijk_2_0_4 + 29 x_ijk_2_1_4 + 10 x_ijk_3_0_4 + 7 x_ijk_3_1_4
      + 35 x_ijk_3_2_4 + 3 x_ijk_3_3_4 + 4 x_ijk_3_4_4 + 17 x_ijk_4_0_4
      + 4 x_ijk_4_1_4 + 6 x_ijk_5_0_4 + 10 x_ijk_5_1_4 + 6 x_ijk_5_2_4
      + 40 x_ijk_5_3_4 + 27 x_ijk_6_0_4 + 11 x_ijk_6_1_4 + 5 x_ijk_6_2_4
      + 19 x_ijk_6_3_4 + 33 x_ijk_7_0_4 + 2 x_ijk_7_1_4 + 28 x_ijk_7_2_4 <= 91
 c6:  x_ijk_0_0_0 + x_ijk_0_1_0 + x_ijk_0_2_0 + x_ijk_0_3_0 + x_ijk_0_4_0 <= 1
 c7:  x_ijk_0_0_1 + x_ijk_0_1_1 + x_ijk_0_2_1 + x_ijk_0_3_1 + x_ijk_0_4_1 <= 1
 c8:  x_ijk_0_0_2 + x_ijk_0_1_2 + x_ijk_0_2_2 + x_ijk_0_3_2 + x_ijk_0_4_2 <= 1
 c9:  x_ijk_0_0_3 + x_ijk_0_1_3 + x_ijk_0_2_3 + x_ijk_0_3_3 + x_ijk_0_4_3 <= 1
 c10: x_ijk_0_0_4 + x_ijk_0_1_4 + x_ijk_0_2_4 + x_ijk_0_3_4 + x_ijk_0_4_4 <= 1
 c11: x_ijk_1_0_0 + x_ijk_1_1_0 + x_ijk_1_2_0 <= 1
 c12: x_ijk_1_0_1 + x_ijk_1_1_1 + x_ijk_1_2_1 <= 1
 c13: x_ijk_1_0_2 + x_ijk_1_1_2 + x_ijk_1_2_2 <= 1
 c14: x_ijk_1_0_3 + x_ijk_1_1_3 + x_ijk_1_2_3 <= 1
 c15: x_ijk_1_0_4 + x_ijk_1_1_4 + x_ijk_1_2_4 <= 1
 c16: x_ijk_2_0_0 + x_ijk_2_1_0 <= 1
 c17: x_ijk_2_0_1 + x_ijk_2_1_1 <= 1
 c18: x_ijk_2_0_2 + x_ijk_2_1_2 <= 1
 c19: x_ijk_2_0_3 + x_ijk_2_1_3 <= 1
 c20: x_ijk_2_0_4 + x_ijk_2_1_4 <= 1
 c21: x_ijk_3_0_0 + x_ijk_3_1_0 + x_ijk_3_2_0 + x_ijk_3_3_0 + x_ijk_3_4_0 <= 1
 c22: x_ijk_3_0_1 + x_ijk_3_1_1 + x_ijk_3_2_1 + x_ijk_3_3_1 + x_ijk_3_4_1 <= 1
 c23: x_ijk_3_0_2 + x_ijk_3_1_2 + x_ijk_3_2_2 + x_ijk_3_3_2 + x_ijk_3_4_2 <= 1
 c24: x_ijk_3_0_3 + x_ijk_3_1_3 + x_ijk_3_2_3 + x_ijk_3_3_3 + x_ijk_3_4_3 <= 1
 c25: x_ijk_3_0_4 + x_ijk_3_1_4 + x_ijk_3_2_4 + x_ijk_3_3_4 + x_ijk_3_4_4 <= 1
 c26: x_ijk_4_0_0 + x_ijk_4_1_0 <= 1
 c27: x_ijk_4_0_1 + x_ijk_4_1_1 <= 1
 c28: x_ijk_4_0_2 + x_ijk_4_1_2 <= 1
 c29: x_ijk_4_0_3 + x_ijk_4_1_3 <= 1
 c30: x_ijk_4_0_4 + x_ijk_4_1_4 <= 1
 c31: x_ijk_5_0_0 + x_ijk_5_1_0 + x_ijk_5_2_0 + x_ijk_5_3_0 <= 1
 c32: x_ijk_5_0_1 + x_ijk_5_1_1 + x_ijk_5_2_1 + x_ijk_5_3_1 <= 1
 c33: x_ijk_5_0_2 + x_ijk_5_1_2 + x_ijk_5_2_2 + x_ijk_5_3_2 <= 1
 c34: x_ijk_5_0_3 + x_ijk_5_1_3 + x_ijk_5_2_3 + x_ijk_5_3_3 <= 1
 c35: x_ijk_5_0_4 + x_ijk_5_1_4 + x_ijk_5_2_4 + x_ijk_5_3_4 <= 1
 c36: x_ijk_6_0_0 + x_ijk_6_1_0 + x_ijk_6_2_0 + x_ijk_6_3_0 <= 1
 c37: x_ijk_6_0_1 + x_ijk_6_1_1 + x_ijk_6_2_1 + x_ijk_6_3_1 <= 1
 c38: x_ijk_6_0_2 + x_ijk_6_1_2 + x_ijk_6_2_2 + x_ijk_6_3_2 <= 1
 c39: x_ijk_6_0_3 + x_ijk_6_1_3 + x_ijk_6_2_3 + x_ijk_6_3_3 <= 1
 c40: x_ijk_6_0_4 + x_ijk_6_1_4 + x_ijk_6_2_4 + x_ijk_6_3_4 <= 1
 c41: x_ijk_7_0_0 + x_ijk_7_1_0 + x_ijk_7_2_0 <= 1
 c42: x_ijk_7_0_1 + x_ijk_7_1_1 + x_ijk_7_2_1 <= 1
 c43: x_ijk_7_0_2 + x_ijk_7_1_2 + x_ijk_7_2_2 <= 1
 c44: x_ijk_7_0_3 + x_ijk_7_1_3 + x_ijk_7_2_3 <= 1
 c45: x_ijk_7_0_4 + x_ijk_7_1_4 + x_ijk_7_2_4 <= 1
Bounds
 0 <= x_ijk_0_0_0 <= 1
 0 <= x_ijk_0_1_0 <= 1
 0 <= x_ijk_0_2_0 <= 1
 0 <= x_ijk_0_3_0 <= 1
 0 <= x_ijk_0_4_0 <= 1
 0 <= x_ijk_1_0_0 <= 1
 0 <= x_ijk_1_1_0 <= 1
 0 <= x_ijk_1_2_0 <= 1
 0 <= x_ijk_2_0_0 <= 1
 0 <= x_ijk_2_1_0 <= 1
 0 <= x_ijk_3_0_0 <= 1
 0 <= x_ijk_3_1_0 <= 1
 0 <= x_ijk_3_2_0 <= 1
 0 <= x_ijk_3_3_0 <= 1
 0 <= x_ijk_3_4_0 <= 1
 0 <= x_ijk_4_0_0 <= 1
 0 <= x_ijk_4_1_0 <= 1
 0 <= x_ijk_5_0_0 <= 1
 0 <= x_ijk_5_1_0 <= 1
 0 <= x_ijk_5_2_0 <= 1
 0 <= x_ijk_5_3_0 <= 1
 0 <= x_ijk_6_0_0 <= 1
 0 <= x_ijk_6_1_0 <= 1
 0 <= x_ijk_6_2_0 <= 1
 0 <= x_ijk_6_3_0 <= 1
 0 <= x_ijk_7_0_0 <= 1
 0 <= x_ijk_7_1_0 <= 1
 0 <= x_ijk_7_2_0 <= 1
 0 <= x_ijk_0_0_1 <= 1
 0 <= x_ijk_0_1_1 <= 1
 0 <= x_ijk_0_2_1 <= 1
 0 <= x_ijk_0_3_1 <= 1
 0 <= x_ijk_0_4_1 <= 1
 0 <= x_ijk_1_0_1 <= 1
 0 <= x_ijk_1_1_1 <= 1
 0 <= x_ijk_1_2_1 <= 1
 0 <= x_ijk_2_0_1 <= 1
 0 <= x_ijk_2_1_1 <= 1
 0 <= x_ijk_3_0_1 <= 1
 0 <= x_ijk_3_1_1 <= 1
 0 <= x_ijk_3_2_1 <= 1
 0 <= x_ijk_3_3_1 <= 1
 0 <= x_ijk_3_4_1 <= 1
 0 <= x_ijk_4_0_1 <= 1
 0 <= x_ijk_4_1_1 <= 1
 0 <= x_ijk_5_0_1 <= 1
 0 <= x_ijk_5_1_1 <= 1
 0 <= x_ijk_5_2_1 <= 1
 0 <= x_ijk_5_3_1 <= 1
 0 <= x_ijk_6_0_1 <= 1
 0 <= x_ijk_6_1_1 <= 1
 0 <= x_ijk_6_2_1 <= 1
 0 <= x_ijk_6_3_1 <= 1
 0 <= x_ijk_7_0_1 <= 1
 0 <= x_ijk_7_1_1 <= 1
 0 <= x_ijk_7_2_1 <= 1
 0 <= x_ijk_0_0_2 <= 1
 0 <= x_ijk_0_1_2 <= 1
 0 <= x_ijk_0_2_2 <= 1
 0 <= x_ijk_0_3_2 <= 1
 0 <= x_ijk_0_4_2 <= 1
 0 <= x_ijk_1_0_2 <= 1
 0 <= x_ijk_1_1_2 <= 1
 0 <= x_ijk_1_2_2 <= 1
 0 <= x_ijk_2_0_2 <= 1
 0 <= x_ijk_2_1_2 <= 1
 0 <= x_ijk_3_0_2 <= 1
 0 <= x_ijk_3_1_2 <= 1
 0 <= x_ijk_3_2_2 <= 1
 0 <= x_ijk_3_3_2 <= 1
 0 <= x_ijk_3_4_2 <= 1
 0 <= x_ijk_4_0_2 <= 1
 0 <= x_ijk_4_1_2 <= 1
 0 <= x_ijk_5_0_2 <= 1
 0 <= x_ijk_5_1_2 <= 1
 0 <= x_ijk_5_2_2 <= 1
 0 <= x_ijk_5_3_2 <= 1
 0 <= x_ijk_6_0_2 <= 1
 0 <= x_ijk_6_1_2 <= 1
 0 <= x_ijk_6_2_2 <= 1
 0 <= x_ijk_6_3_2 <= 1
 0 <= x_ijk_7_0_2 <= 1
 0 <= x_ijk_7_1_2 <= 1
 0 <= x_ijk_7_2_2 <= 1
 0 <= x_ijk_0_0_3 <= 1
 0 <= x_ijk_0_1_3 <= 1
 0 <= x_ijk_0_2_3 <= 1
 0 <= x_ijk_0_3_3 <= 1
 0 <= x_ijk_0_4_3 <= 1
 0 <= x_ijk_1_0_3 <= 1
 0 <= x_ijk_1_1_3 <= 1
 0 <= x_ijk_1_2_3 <= 1
 0 <= x_ijk_2_0_3 <= 1
 0 <= x_ijk_2_1_3 <= 1
 0 <= x_ijk_3_0_3 <= 1
 0 <= x_ijk_3_1_3 <= 1
 0 <= x_ijk_3_2_3 <= 1
 0 <= x_ijk_3_3_3 <= 1
 0 <= x_ijk_3_4_3 <= 1
 0 <= x_ijk_4_0_3 <= 1
 0 <= x_ijk_4_1_3 <= 1
 0 <= x_ijk_5_0_3 <= 1
 0 <= x_ijk_5_1_3 <= 1
 0 <= x_ijk_5_2_3 <= 1
 0 <= x_ijk_5_3_3 <= 1
 0 <= x_ijk_6_0_3 <= 1
 0 <= x_ijk_6_1_3 <= 1
 0 <= x_ijk_6_2_3 <= 1
 0 <= x_ijk_6_3_3 <= 1
 0 <= x_ijk_7_0_3 <= 1
 0 <= x_ijk_7_1_3 <= 1
 0 <= x_ijk_7_2_3 <= 1
 0 <= x_ijk_0_0_4 <= 1
 0 <= x_ijk_0_1_4 <= 1
 0 <= x_ijk_0_2_4 <= 1
 0 <= x_ijk_0_3_4 <= 1
 0 <= x_ijk_0_4_4 <= 1
 0 <= x_ijk_1_0_4 <= 1
 0 <= x_ijk_1_1_4 <= 1
 0 <= x_ijk_1_2_4 <= 1
 0 <= x_ijk_2_0_4 <= 1
 0 <= x_ijk_2_1_4 <= 1
 0 <= x_ijk_3_0_4 <= 1
 0 <= x_ijk_3_1_4 <= 1
 0 <= x_ijk_3_2_4 <= 1
 0 <= x_ijk_3_3_4 <= 1
 0 <= x_ijk_3_4_4 <= 1
 0 <= x_ijk_4_0_4 <= 1
 0 <= x_ijk_4_1_4 <= 1
 0 <= x_ijk_5_0_4 <= 1
 0 <= x_ijk_5_1_4 <= 1
 0 <= x_ijk_5_2_4 <= 1
 0 <= x_ijk_5_3_4 <= 1
 0 <= x_ijk_6_0_4 <= 1
 0 <= x_ijk_6_1_4 <= 1
 0 <= x_ijk_6_2_4 <= 1
 0 <= x_ijk_6_3_4 <= 1
 0 <= x_ijk_7_0_4 <= 1
 0 <= x_ijk_7_1_4 <= 1
 0 <= x_ijk_7_2_4 <= 1
Binaries
 x_ijk_0_0_0  x_ijk_0_1_0  x_ijk_0_2_0  x_ijk_0_3_0  x_ijk_0_4_0  x_ijk_1_0_0 
 x_ijk_1_1_0  x_ijk_1_2_0  x_ijk_2_0_0  x_ijk_2_1_0  x_ijk_3_0_0  x_ijk_3_1_0 
 x_ijk_3_2_0  x_ijk_3_3_0  x_ijk_3_4_0  x_ijk_4_0_0  x_ijk_4_1_0  x_ijk_5_0_0 
 x_ijk_5_1_0  x_ijk_5_2_0  x_ijk_5_3_0  x_ijk_6_0_0  x_ijk_6_1_0  x_ijk_6_2_0 
 x_ijk_6_3_0  x_ijk_7_0_0  x_ijk_7_1_0  x_ijk_7_2_0  x_ijk_0_0_1  x_ijk_0_1_1 
 x_ijk_0_2_1  x_ijk_0_3_1  x_ijk_0_4_1  x_ijk_1_0_1  x_ijk_1_1_1  x_ijk_1_2_1 
 x_ijk_2_0_1  x_ijk_2_1_1  x_ijk_3_0_1  x_ijk_3_1_1  x_ijk_3_2_1  x_ijk_3_3_1 
 x_ijk_3_4_1  x_ijk_4_0_1  x_ijk_4_1_1  x_ijk_5_0_1  x_ijk_5_1_1  x_ijk_5_2_1 
 x_ijk_5_3_1  x_ijk_6_0_1  x_ijk_6_1_1  x_ijk_6_2_1  x_ijk_6_3_1  x_ijk_7_0_1 
 x_ijk_7_1_1  x_ijk_7_2_1  x_ijk_0_0_2  x_ijk_0_1_2  x_ijk_0_2_2  x_ijk_0_3_2 
 x_ijk_0_4_2  x_ijk_1_0_2  x_ijk_1_1_2  x_ijk_1_2_2  x_ijk_2_0_2  x_ijk_2_1_2 
 x_ijk_3_0_2  x_ijk_3_1_2  x_ijk_3_2_2  x_ijk_3_3_2  x_ijk_3_4_2  x_ijk_4_0_2 
 x_ijk_4_1_2  x_ijk_5_0_2  x_ijk_5_1_2  x_ijk_5_2_2  x_ijk_5_3_2  x_ijk_6_0_2 
 x_ijk_6_1_2  x_ijk_6_2_2  x_ijk_6_3_2  x_ijk_7_0_2  x_ijk_7_1_2  x_ijk_7_2_2 
 x_ijk_0_0_3  x_ijk_0_1_3  x_ijk_0_2_3  x_ijk_0_3_3  x_ijk_0_4_3  x_ijk_1_0_3 
 x_ijk_1_1_3  x_ijk_1_2_3  x_ijk_2_0_3  x_ijk_2_1_3  x_ijk_3_0_3  x_ijk_3_1_3 
 x_ijk_3_2_3  x_ijk_3_3_3  x_ijk_3_4_3  x_ijk_4_0_3  x_ijk_4_1_3  x_ijk_5_0_3 
 x_ijk_5_1_3  x_ijk_5_2_3  x_ijk_5_3_3  x_ijk_6_0_3  x_ijk_6_1_3  x_ijk_6_2_3 
 x_ijk_6_3_3  x_ijk_7_0_3  x_ijk_7_1_3  x_ijk_7_2_3  x_ijk_0_0_4  x_ijk_0_1_4 
 x_ijk_0_2_4  x_ijk_0_3_4  x_ijk_0_4_4  x_ijk_1_0_4  x_ijk_1_1_4  x_ijk_1_2_4 
 x_ijk_2_0_4  x_ijk_2_1_4  x_ijk_3_0_4  x_ijk_3_1_4  x_ijk_3_2_4  x_ijk_3_3_4 
 x_ijk_3_4_4  x_ijk_4_0_4  x_ijk_4_1_4  x_ijk_5_0_4  x_ijk_5_1_4  x_ijk_5_2_4 
 x_ijk_5_3_4  x_ijk_6_0_4  x_ijk_6_1_4  x_ijk_6_2_4  x_ijk_6_3_4  x_ijk_7_0_4 
 x_ijk_7_1_4  x_ijk_7_2_4 
End
